NAME: mine
TYPE: TSP
COMMENT: mine
DIMENSION: 5
EDGE_WEIGHT_TYPE: EXPLICIT
EDGE_WEIGHT_FORMAT: FULL_MATRIX
EDGE_WEIGHT_SECTION
0	270	750	2040	150	
270	0	480	1755	195	
750	480	0	1305	630	
2040	1755	1305	0	1920	
150 195	630	1920	0	
EOF